\ LP format - for model browsing. Use MPS format to capture full model detail.
\ Signature: 0x3f11955c735a7179
Minimize
  5000 d_alpha[U8913605,W3421567089,3]
   + 5000 d_alpha[S8237496,T2908743561,3]
   + 5000 d_alpha[Q4627015,T2908743561,3]
   + 5000 d_alpha[S8237496,W3421567089,3]
   + 5000 d_alpha[U8913605,T2908743561,3]
   + 5000 d_alpha[E0275843,T2908743561,3]
   + 5000 d_alpha[Q4627015,W3421567089,3]
   + 5000 d_alpha[E0275843,W3421567089,3] + 5000 d_beta[5567,T2908743561,3]
   + 5000 d_beta[5567,W3421567089,3] + 5000 d_beta[7300,T2908743561,3]
   + 5000 d_beta[7300,W3421567089,3] + 5000 d_gamma[5567,T2908743561,3]
   + 5000 d_gamma[5567,W3421567089,3] + 5000 d_gamma[7300,T2908743561,3]
   + 5000 d_gamma[7300,W3421567089,3] + 0 s[5567,W3421567089,0]
   + 0 s[7300,T2908743561,0] + 0 s[7300,W3421567089,0]
   + 0 s[5567,T2908743561,0] + d_xs_5567_Q4627015_12.1_3_0
   + d_xs_5567_Q4627015_12.1_3_1 + d_xs_7300_S8237496_12.1_3_2
   + d_xs_7300_S8237496_12.1_3_3 + d_xs_7300_U8913605_12.1_3_4
   + d_xs_7300_U8913605_12.1_3_5 + d_xs_5567_U8913605_12.1_3_6
   + d_xs_5567_U8913605_12.1_3_7 + d_xs_5567_S8237496_12.1_3_8
   + d_xs_5567_S8237496_12.1_3_9 + d_xs_7300_E0275843_12.1_3_10
   + d_xs_7300_E0275843_12.1_3_11 + d_xs_7300_Q4627015_12.1_3_12
   + d_xs_7300_Q4627015_12.1_3_13 + d_xs_5567_E0275843_12.1_3_14
   + d_xs_5567_E0275843_12.1_3_15
Subject To
 cons_dealer_demands[U8913605,W3421567089,3]:
   d_alpha[U8913605,W3421567089,3] + 6 d_xs_7300_U8913605_12.1_3_4
   + 6 d_xs_7300_U8913605_12.1_3_5 + 17 d_xs_5567_U8913605_12.1_3_6
   + 17 d_xs_5567_U8913605_12.1_3_7 >= 17
 cons_dealer_demands[S8237496,T2908743561,3]:
   d_alpha[S8237496,T2908743561,3] + 19 d_xs_7300_S8237496_12.1_3_3
   + 10 d_xs_5567_S8237496_12.1_3_9 >= 19
 cons_dealer_demands[Q4627015,T2908743561,3]:
   d_alpha[Q4627015,T2908743561,3] + 10 d_xs_5567_Q4627015_12.1_3_1
   + 14 d_xs_7300_Q4627015_12.1_3_13 >= 14
 cons_dealer_demands[S8237496,W3421567089,3]:
   d_alpha[S8237496,W3421567089,3] + 6 d_xs_7300_S8237496_12.1_3_2
   + 6 d_xs_7300_S8237496_12.1_3_3 + 15 d_xs_5567_S8237496_12.1_3_8
   + 15 d_xs_5567_S8237496_12.1_3_9 >= 15
 cons_dealer_demands[U8913605,T2908743561,3]:
   d_alpha[U8913605,T2908743561,3] + 17 d_xs_7300_U8913605_12.1_3_5
   + 10 d_xs_5567_U8913605_12.1_3_7 >= 17
 cons_dealer_demands[E0275843,T2908743561,3]:
   d_alpha[E0275843,T2908743561,3] + 12 d_xs_7300_E0275843_12.1_3_11
   + 10 d_xs_5567_E0275843_12.1_3_15 >= 12
 cons_dealer_demands[Q4627015,W3421567089,3]:
   d_alpha[Q4627015,W3421567089,3] + 20 d_xs_5567_Q4627015_12.1_3_0
   + 20 d_xs_5567_Q4627015_12.1_3_1 + 6 d_xs_7300_Q4627015_12.1_3_12
   + 6 d_xs_7300_Q4627015_12.1_3_13 >= 23
 cons_dealer_demands[E0275843,W3421567089,3]:
   d_alpha[E0275843,W3421567089,3] + 6 d_xs_7300_E0275843_12.1_3_10
   + 6 d_xs_7300_E0275843_12.1_3_11 + 9 d_xs_5567_E0275843_12.1_3_14
   + 9 d_xs_5567_E0275843_12.1_3_15 >= 9
 cons_sku_transfer[5567,T2908743561,3]: d_beta[5567,T2908743561,3]
   - d_gamma[5567,T2908743561,3] + s[5567,T2908743561,3]
   - s[5567,T2908743561,2] + 10 d_xs_5567_Q4627015_12.1_3_1
   + 10 d_xs_5567_U8913605_12.1_3_7 + 10 d_xs_5567_S8237496_12.1_3_9
   + 10 d_xs_5567_E0275843_12.1_3_15 = 10
 cons_sku_transfer[5567,W3421567089,3]: d_beta[5567,W3421567089,3]
   - d_gamma[5567,W3421567089,3] + s[5567,W3421567089,3]
   - s[5567,W3421567089,2] + 20 d_xs_5567_Q4627015_12.1_3_0
   + 20 d_xs_5567_Q4627015_12.1_3_1 + 17 d_xs_5567_U8913605_12.1_3_6
   + 17 d_xs_5567_U8913605_12.1_3_7 + 15 d_xs_5567_S8237496_12.1_3_8
   + 15 d_xs_5567_S8237496_12.1_3_9 + 9 d_xs_5567_E0275843_12.1_3_14
   + 9 d_xs_5567_E0275843_12.1_3_15 = 20
 cons_sku_transfer[7300,T2908743561,3]: d_beta[7300,T2908743561,3]
   - d_gamma[7300,T2908743561,3] + s[7300,T2908743561,3]
   - s[7300,T2908743561,2] + 19 d_xs_7300_S8237496_12.1_3_3
   + 17 d_xs_7300_U8913605_12.1_3_5 + 12 d_xs_7300_E0275843_12.1_3_11
   + 14 d_xs_7300_Q4627015_12.1_3_13 = 19
 cons_sku_transfer[7300,W3421567089,3]: d_beta[7300,W3421567089,3]
   - d_gamma[7300,W3421567089,3] + s[7300,W3421567089,3]
   - s[7300,W3421567089,2] + 6 d_xs_7300_S8237496_12.1_3_2
   + 6 d_xs_7300_S8237496_12.1_3_3 + 6 d_xs_7300_U8913605_12.1_3_4
   + 6 d_xs_7300_U8913605_12.1_3_5 + 6 d_xs_7300_E0275843_12.1_3_10
   + 6 d_xs_7300_E0275843_12.1_3_11 + 6 d_xs_7300_Q4627015_12.1_3_12
   + 6 d_xs_7300_Q4627015_12.1_3_13 = 6
 cons_fact_inv_limit[5567,1]: s[5567,T2908743561,1] + s[5567,W3421567089,1]
   >= -488
 cons_fact_inv_limit[5567,2]: s[5567,T2908743561,2] + s[5567,W3421567089,2]
   >= -488
 cons_fact_inv_limit[5567,3]: s[5567,T2908743561,3] + s[5567,W3421567089,3]
   >= -488
 cons_fact_inv_limit[7300,1]: s[7300,T2908743561,1] + s[7300,W3421567089,1]
   >= -506
 cons_fact_inv_limit[7300,2]: s[7300,T2908743561,2] + s[7300,W3421567089,2]
   >= -506
 cons_fact_inv_limit[7300,3]: s[7300,T2908743561,3] + s[7300,W3421567089,3]
   >= -506
Bounds
 d_alpha[U8913605,W3421567089,3] = 0
 d_alpha[S8237496,T2908743561,3] = 0
 d_alpha[Q4627015,T2908743561,3] = 0
 d_alpha[S8237496,W3421567089,3] = 0
 d_alpha[U8913605,T2908743561,3] = 0
 d_alpha[E0275843,T2908743561,3] = 0
 d_alpha[Q4627015,W3421567089,3] = 0
 d_alpha[E0275843,W3421567089,3] = 0
 s[5567,W3421567089,0] = 70
 s[7300,T2908743561,0] = 40
 s[7300,W3421567089,0] = 48
 s[5567,T2908743561,0] = 69
Generals
 d_alpha[U8913605,W3421567089,3] d_alpha[S8237496,T2908743561,3]
 d_alpha[Q4627015,T2908743561,3] d_alpha[S8237496,W3421567089,3]
 d_alpha[U8913605,T2908743561,3] d_alpha[E0275843,T2908743561,3]
 d_alpha[Q4627015,W3421567089,3] d_alpha[E0275843,W3421567089,3]
 d_beta[5567,T2908743561,3] d_beta[5567,W3421567089,3]
 d_beta[7300,T2908743561,3] d_beta[7300,W3421567089,3]
 d_gamma[5567,T2908743561,3] d_gamma[5567,W3421567089,3]
 d_gamma[7300,T2908743561,3] d_gamma[7300,W3421567089,3]
 s[5567,W3421567089,0] s[5567,T2908743561,3] s[5567,W3421567089,3]
 s[7300,T2908743561,3] s[7300,T2908743561,0] s[5567,T2908743561,2]
 s[5567,W3421567089,2] s[7300,W3421567089,0] s[7300,W3421567089,3]
 s[7300,T2908743561,2] s[7300,W3421567089,2] s[5567,T2908743561,1]
 s[5567,W3421567089,1] s[7300,T2908743561,1] s[7300,W3421567089,1]
 s[5567,T2908743561,0] d_xs_5567_Q4627015_12.1_3_0
 d_xs_5567_Q4627015_12.1_3_1 d_xs_7300_S8237496_12.1_3_2
 d_xs_7300_S8237496_12.1_3_3 d_xs_7300_U8913605_12.1_3_4
 d_xs_7300_U8913605_12.1_3_5 d_xs_5567_U8913605_12.1_3_6
 d_xs_5567_U8913605_12.1_3_7 d_xs_5567_S8237496_12.1_3_8
 d_xs_5567_S8237496_12.1_3_9 d_xs_7300_E0275843_12.1_3_10
 d_xs_7300_E0275843_12.1_3_11 d_xs_7300_Q4627015_12.1_3_12
 d_xs_7300_Q4627015_12.1_3_13 d_xs_5567_E0275843_12.1_3_14
 d_xs_5567_E0275843_12.1_3_15
End
